c "random instance"
p edges 150 1089
e 1 18
e 1 19
e 1 42
e 1 58
e 1 67
e 1 79
e 1 88
e 1 93
e 1 110
e 1 130
e 1 132
e 1 134
e 1 136
e 1 138
e 1 143
e 2 13
e 2 22
e 2 23
e 2 27
e 2 32
e 2 46
e 2 60
e 2 64
e 2 79
e 2 95
e 2 105
e 2 107
e 2 109
e 2 113
e 2 123
e 2 124
e 3 7
e 3 18
e 3 33
e 3 35
e 3 44
e 3 47
e 3 51
e 3 54
e 3 64
e 3 82
e 3 87
e 3 90
e 3 103
e 3 116
e 3 123
e 3 143
e 4 23
e 4 34
e 4 37
e 4 44
e 4 47
e 4 51
e 4 53
e 4 66
e 4 85
e 4 92
e 4 95
e 4 97
e 4 101
e 4 104
e 4 114
e 4 121
e 4 125
e 4 128
e 4 139
e 4 145
e 5 11
e 5 17
e 5 24
e 5 25
e 5 41
e 5 57
e 5 69
e 5 76
e 5 90
e 5 92
e 5 96
e 5 97
e 5 100
e 5 107
e 5 110
e 5 122
e 5 138
e 5 148
e 5 149
e 6 10
e 6 14
e 6 23
e 6 26
e 6 28
e 6 30
e 6 44
e 6 45
e 6 50
e 6 65
e 6 72
e 6 73
e 6 98
e 6 110
e 6 118
e 6 120
e 6 121
e 6 124
e 6 130
e 6 137
e 7 15
e 7 52
e 7 59
e 7 70
e 7 77
e 7 81
e 7 105
e 7 114
e 7 116
e 7 133
e 8 11
e 8 13
e 8 15
e 8 23
e 8 27
e 8 55
e 8 56
e 8 76
e 8 84
e 8 108
e 8 113
e 8 115
e 8 116
e 8 120
e 8 146
e 9 15
e 9 18
e 9 20
e 9 41
e 9 44
e 9 71
e 9 77
e 9 96
e 9 107
e 9 114
e 9 121
e 9 127
e 9 150
e 10 13
e 10 18
e 10 19
e 10 23
e 10 25
e 10 39
e 10 52
e 10 57
e 10 62
e 10 65
e 10 86
e 10 93
e 10 118
e 10 133
e 10 139
e 10 150
e 11 13
e 11 23
e 11 32
e 11 38
e 11 47
e 11 52
e 11 59
e 11 61
e 11 68
e 11 71
e 11 86
e 11 93
e 11 98
e 11 99
e 11 113
e 11 128
e 11 133
e 11 138
e 11 142
e 11 146
e 11 147
e 12 15
e 12 27
e 12 39
e 12 41
e 12 46
e 12 62
e 12 66
e 12 74
e 12 77
e 12 79
e 12 86
e 12 91
e 12 98
e 12 106
e 12 115
e 12 120
e 12 134
e 12 135
e 13 58
e 13 62
e 13 72
e 13 84
e 13 96
e 13 105
e 13 117
e 13 122
e 13 130
e 13 147
e 14 21
e 14 24
e 14 31
e 14 41
e 14 49
e 14 51
e 14 58
e 14 72
e 14 80
e 14 93
e 14 106
e 14 112
e 14 120
e 14 125
e 14 126
e 15 30
e 15 40
e 15 45
e 15 50
e 15 72
e 15 78
e 15 82
e 15 87
e 15 88
e 15 93
e 15 94
e 15 97
e 15 108
e 15 113
e 15 116
e 15 129
e 15 131
e 15 140
e 15 141
e 16 24
e 16 25
e 16 28
e 16 42
e 16 68
e 16 87
e 16 88
e 16 96
e 16 111
e 16 118
e 16 127
e 16 135
e 16 136
e 17 22
e 17 43
e 17 78
e 17 80
e 17 83
e 17 84
e 17 92
e 17 102
e 17 115
e 17 116
e 17 124
e 17 129
e 17 143
e 18 23
e 18 24
e 18 51
e 18 62
e 18 63
e 18 72
e 18 93
e 18 118
e 18 136
e 19 22
e 19 26
e 19 29
e 19 39
e 19 41
e 19 43
e 19 49
e 19 57
e 19 67
e 19 68
e 19 70
e 19 89
e 19 95
e 19 118
e 19 124
e 19 138
e 19 146
e 19 150
e 20 23
e 20 48
e 20 73
e 20 79
e 20 114
e 20 133
e 20 134
e 21 24
e 21 25
e 21 34
e 21 35
e 21 45
e 21 68
e 21 71
e 21 74
e 21 78
e 21 85
e 21 95
e 21 99
e 21 115
e 21 117
e 21 141
e 21 142
e 22 23
e 22 27
e 22 28
e 22 31
e 22 41
e 22 52
e 22 81
e 22 92
e 22 96
e 22 113
e 22 125
e 22 136
e 22 140
e 22 150
e 23 34
e 23 36
e 23 44
e 23 51
e 23 56
e 23 61
e 23 62
e 23 76
e 23 78
e 23 123
e 23 128
e 23 136
e 23 139
e 23 147
e 24 28
e 24 33
e 24 35
e 24 45
e 24 56
e 24 68
e 24 75
e 24 78
e 24 80
e 24 83
e 24 87
e 24 94
e 24 106
e 24 109
e 24 111
e 24 120
e 24 123
e 24 133
e 24 141
e 24 142
e 25 27
e 25 47
e 25 50
e 25 51
e 25 74
e 25 89
e 25 90
e 25 94
e 25 117
e 25 131
e 26 29
e 26 31
e 26 46
e 26 55
e 26 61
e 26 63
e 26 77
e 26 84
e 26 89
e 26 114
e 26 121
e 26 127
e 27 54
e 27 55
e 27 66
e 27 68
e 27 74
e 27 80
e 27 91
e 27 100
e 27 108
e 27 111
e 27 120
e 27 126
e 27 131
e 27 133
e 27 136
e 27 138
e 27 143
e 28 37
e 28 82
e 28 108
e 28 110
e 28 112
e 28 115
e 29 53
e 29 54
e 29 60
e 29 62
e 29 69
e 29 86
e 29 97
e 29 107
e 29 110
e 29 113
e 29 122
e 29 126
e 29 134
e 29 148
e 30 33
e 30 67
e 30 81
e 30 85
e 30 90
e 30 101
e 30 111
e 30 113
e 30 125
e 30 128
e 30 148
e 30 150
e 31 33
e 31 51
e 31 52
e 31 53
e 31 68
e 31 81
e 31 83
e 31 92
e 31 110
e 31 111
e 31 116
e 31 128
e 31 134
e 31 136
e 31 143
e 31 150
e 32 35
e 32 40
e 32 64
e 32 67
e 32 78
e 32 83
e 32 98
e 32 107
e 32 108
e 32 110
e 32 111
e 32 135
e 32 137
e 32 142
e 32 144
e 32 147
e 33 39
e 33 43
e 33 61
e 33 78
e 33 83
e 33 109
e 33 111
e 33 142
e 33 148
e 34 48
e 34 67
e 34 73
e 34 90
e 34 94
e 34 98
e 34 106
e 34 109
e 34 115
e 34 127
e 34 129
e 34 131
e 34 132
e 34 134
e 34 141
e 34 144
e 35 36
e 35 51
e 35 85
e 35 95
e 35 100
e 35 107
e 35 114
e 35 116
e 35 143
e 35 149
e 36 40
e 36 51
e 36 52
e 36 53
e 36 60
e 36 74
e 36 90
e 36 93
e 36 100
e 36 112
e 36 113
e 36 116
e 36 120
e 36 129
e 36 132
e 37 38
e 37 39
e 37 42
e 37 54
e 37 55
e 37 60
e 37 67
e 37 72
e 37 78
e 37 82
e 37 86
e 37 103
e 37 122
e 38 74
e 38 82
e 38 91
e 38 97
e 38 117
e 38 140
e 38 150
e 39 82
e 39 110
e 39 118
e 40 49
e 40 50
e 40 76
e 40 79
e 40 83
e 40 88
e 40 96
e 40 114
e 40 122
e 40 141
e 40 145
e 40 150
e 41 65
e 41 67
e 41 71
e 41 72
e 41 74
e 41 77
e 41 85
e 41 91
e 41 97
e 41 99
e 41 109
e 41 111
e 41 142
e 42 50
e 42 61
e 42 66
e 42 83
e 42 88
e 42 99
e 42 102
e 42 118
e 42 129
e 42 132
e 43 66
e 43 71
e 43 74
e 43 76
e 43 77
e 43 106
e 43 116
e 43 118
e 43 119
e 43 127
e 43 128
e 43 131
e 43 139
e 43 148
e 43 149
e 44 54
e 44 64
e 44 65
e 44 73
e 44 97
e 44 102
e 44 121
e 44 122
e 44 124
e 44 129
e 44 136
e 44 138
e 45 50
e 45 52
e 45 67
e 45 74
e 45 82
e 45 83
e 45 104
e 45 133
e 45 138
e 46 55
e 46 59
e 46 66
e 46 85
e 46 88
e 46 95
e 46 119
e 46 134
e 46 140
e 46 142
e 46 147
e 47 60
e 47 71
e 47 80
e 47 89
e 47 103
e 47 120
e 47 123
e 47 126
e 47 147
e 47 148
e 48 61
e 48 89
e 48 90
e 48 100
e 48 110
e 48 122
e 48 127
e 48 129
e 48 132
e 49 52
e 49 72
e 49 75
e 49 88
e 49 92
e 49 93
e 49 103
e 49 114
e 49 115
e 49 125
e 49 127
e 50 56
e 50 65
e 50 84
e 50 98
e 50 143
e 50 150
e 51 52
e 51 53
e 51 55
e 51 58
e 51 60
e 51 62
e 51 89
e 51 97
e 51 103
e 51 107
e 51 112
e 51 116
e 51 117
e 51 129
e 52 73
e 52 93
e 52 104
e 52 137
e 53 63
e 53 65
e 53 88
e 53 117
e 53 123
e 53 130
e 53 133
e 53 143
e 54 65
e 54 69
e 54 78
e 54 98
e 54 101
e 54 110
e 54 145
e 54 148
e 55 64
e 55 66
e 55 67
e 55 70
e 55 90
e 55 99
e 55 115
e 55 120
e 55 123
e 55 137
e 55 146
e 56 60
e 56 63
e 56 78
e 56 79
e 56 87
e 56 94
e 56 118
e 56 146
e 56 147
e 57 64
e 57 90
e 57 99
e 57 118
e 57 129
e 57 133
e 57 148
e 58 66
e 58 97
e 58 99
e 58 102
e 58 107
e 58 115
e 58 134
e 58 146
e 59 72
e 59 75
e 59 101
e 59 102
e 59 124
e 59 137
e 59 145
e 60 61
e 60 69
e 60 70
e 60 74
e 60 81
e 60 111
e 60 129
e 60 131
e 61 97
e 62 63
e 62 76
e 62 83
e 62 93
e 62 103
e 62 114
e 62 131
e 62 134
e 62 137
e 63 68
e 63 85
e 63 88
e 63 133
e 63 145
e 63 150
e 64 71
e 64 85
e 64 90
e 64 104
e 64 111
e 64 122
e 65 71
e 65 77
e 65 82
e 65 111
e 65 135
e 65 147
e 66 71
e 66 88
e 66 93
e 66 107
e 66 112
e 66 140
e 66 145
e 66 147
e 67 83
e 67 85
e 67 107
e 67 112
e 67 118
e 67 120
e 67 121
e 67 144
e 68 71
e 68 74
e 68 79
e 68 85
e 68 86
e 69 76
e 69 82
e 69 102
e 69 115
e 69 123
e 70 93
e 70 139
e 71 89
e 71 93
e 71 96
e 71 101
e 71 102
e 71 108
e 71 116
e 71 119
e 71 120
e 71 126
e 71 135
e 71 146
e 72 78
e 72 95
e 72 97
e 72 98
e 72 110
e 72 117
e 72 118
e 72 126
e 72 142
e 72 149
e 72 150
e 73 93
e 73 95
e 73 100
e 73 129
e 73 131
e 73 141
e 74 76
e 74 91
e 74 95
e 74 110
e 74 116
e 75 77
e 75 79
e 75 86
e 75 90
e 75 93
e 75 94
e 75 96
e 75 102
e 75 111
e 75 113
e 75 141
e 75 143
e 75 148
e 76 95
e 76 97
e 76 112
e 76 118
e 76 119
e 76 127
e 77 83
e 77 91
e 77 97
e 77 134
e 77 145
e 77 147
e 78 96
e 78 117
e 78 119
e 78 126
e 78 145
e 79 90
e 79 95
e 79 102
e 79 104
e 79 109
e 79 118
e 79 122
e 79 130
e 79 139
e 80 91
e 80 104
e 80 107
e 80 115
e 80 136
e 81 89
e 81 106
e 81 119
e 81 128
e 81 146
e 82 83
e 82 88
e 82 98
e 82 99
e 83 85
e 83 110
e 83 125
e 83 134
e 83 146
e 83 149
e 84 90
e 84 95
e 84 109
e 84 143
e 84 144
e 85 105
e 85 122
e 85 144
e 85 145
e 86 88
e 86 95
e 86 106
e 86 114
e 86 115
e 86 119
e 86 127
e 86 137
e 86 150
e 87 120
e 87 123
e 87 125
e 88 107
e 88 113
e 88 125
e 88 126
e 88 127
e 88 136
e 88 139
e 89 104
e 89 105
e 89 124
e 89 126
e 90 105
e 90 113
e 90 118
e 90 125
e 90 127
e 90 132
e 90 145
e 90 149
e 91 112
e 91 120
e 91 127
e 91 128
e 91 139
e 92 111
e 92 118
e 92 120
e 92 128
e 92 134
e 92 147
e 93 122
e 93 124
e 94 116
e 94 128
e 94 146
e 94 147
e 95 99
e 95 114
e 95 126
e 95 142
e 95 144
e 95 146
e 96 104
e 96 105
e 96 106
e 96 111
e 96 112
e 96 121
e 96 135
e 96 140
e 96 144
e 96 147
e 97 104
e 97 113
e 97 124
e 97 127
e 97 133
e 98 101
e 98 117
e 98 123
e 98 127
e 98 128
e 98 143
e 99 106
e 99 115
e 100 104
e 100 137
e 100 141
e 100 144
e 100 147
e 101 113
e 101 146
e 101 148
e 102 111
e 102 119
e 102 140
e 103 131
e 103 136
e 103 137
e 104 130
e 105 117
e 105 128
e 105 133
e 105 144
e 106 112
e 106 149
e 107 108
e 107 109
e 107 119
e 107 136
e 108 131
e 108 149
e 109 112
e 109 119
e 109 130
e 109 141
e 110 125
e 110 130
e 110 131
e 110 138
e 110 145
e 111 112
e 111 129
e 111 135
e 112 116
e 112 126
e 112 133
e 112 134
e 113 114
e 113 137
e 113 146
e 114 118
e 114 122
e 115 116
e 115 120
e 115 135
e 115 143
e 115 145
e 116 117
e 116 120
e 116 122
e 116 142
e 116 147
e 117 130
e 118 135
e 118 137
e 118 145
e 118 150
e 119 122
e 120 124
e 120 138
e 121 125
e 121 137
e 121 140
e 122 125
e 122 136
e 123 124
e 123 130
e 124 125
e 124 142
e 124 143
e 125 143
e 126 131
e 126 139
e 126 147
e 128 134
e 128 137
e 128 139
e 128 143
e 129 131
e 129 140
e 129 146
e 130 138
e 130 147
e 131 138
e 131 144
e 131 150
e 132 142
e 132 143
e 134 140
e 134 143
e 134 145
e 134 149
e 135 138
e 136 139
e 136 145
e 137 143
e 138 142
e 138 145
e 138 146
e 142 145
e 142 148
e 143 148
e 145 146
